proyfinal/src/viki/013/experimentInOfficeAgust.take6.output/13d0674f-72c5-4d7f-a4fb-c29500fbbff8.als.dat
{'cnf.clauses': '118081',
 'cnf.totvars': '69608',
 'conflict literals': '7',
 'conflicts': '6',
 'decisions': '657',
 'memused.mb': '16.08',
 'outcome': 'UNSAT',
 'propagations': '21812',
 'restarts': '1',
 'solver.msecs': 34,
 'task.msecs': 81}
