proyfinal/src/viki/013/experimentInOfficeAgust.take6.output/13d0674f-72c5-4d7f-a4fb-c29500fbbff8.als.out
Reading from standard input... Use '--help' for help.
============================[ Problem Statistics ]=============================
|                                                                             |
|  Number of variables:         69608                                         |
|  Number of clauses:          118081                                         |
|  Parse time:                   0.03 s                                       |
|                                                                             |
============================[ Search Statistics ]==============================
| Conflicts |          ORIGINAL         |          LEARNT          | Progress |
|           |    Vars  Clauses Literals |    Limit  Clauses Lit/Cl |          |
===============================================================================
===============================================================================
restarts              : 1
conflicts             : 6              (174 /sec)
decisions             : 657            (0.00 % random) (19085 /sec)
propagations          : 21812          (633609 /sec)
conflict literals     : 7              (0.00 % deleted)
Memory used           : 16.08 MB
CPU time              : 0.034425 s

UNSATISFIABLE
